NAME: random-78-28012
TYPE: TSP
COMMENT: size=78 seed=28012
DIMENSION: 158
EDGE_WEIGHT_TYPE: EUC_2D
NODE_COORD_SECTION
+0 684 440
-0 684 440
+1 979 213
-1 429 184
+2 960 754
-2 206 777
+3 685 208
-3 285 497
+4 324 643
-4 300 160
+5 618 689
-5 302 123
+6 526 476
-6 516 237
+7 948 293
-7 311 462
+8 47 341
-8 227 78
+9 261 152
-9 228 101
+10 364 683
-10 495 391
+11 70 648
-11 365 138
+12 895 356
-12 275 682
+13 476 428
-13 255 272
+14 172 537
-14 564 524
+15 37 588
-15 674 696
+16 473 697
-16 339 869
+17 180 141
-17 401 52
+18 253 897
-18 547 298
+19 130 338
-19 943 650
+20 744 511
-20 280 617
+21 517 142
-21 179 808
+22 0 746
-22 52 216
+23 756 665
-23 998 833
+24 271 960
-24 288 236
+25 662 535
-25 337 171
+26 662 885
-26 152 289
+27 291 787
-27 941 5
+28 795 803
-28 179 787
+29 379 315
-29 676 453
+30 564 607
-30 780 661
+31 196 315
-31 372 520
+32 723 126
-32 942 925
+33 467 229
-33 75 432
+34 634 140
-34 196 970
+35 170 958
-35 890 634
+36 424 330
-36 796 667
+37 906 524
-37 958 642
+38 230 863
-38 974 7
+39 265 546
-39 649 247
+40 2 857
-40 221 869
+41 138 849
-41 931 362
+42 12 437
-42 634 952
+43 449 535
-43 598 329
+44 664 660
-44 237 526
+45 490 761
-45 244 62
+46 273 857
-46 660 0
+47 594 282
-47 681 332
+48 574 33
-48 216 52
+49 601 704
-49 166 477
+50 475 50
-50 619 207
+51 589 492
-51 954 126
+52 669 505
-52 998 126
+53 978 193
-53 141 770
+54 133 747
-54 60 2
+55 127 281
-55 174 890
+56 556 956
-56 647 37
+57 589 240
-57 479 363
+58 789 155
-58 155 510
+59 945 562
-59 248 76
+60 436 361
-60 148 107
+61 40 549
-61 523 902
+62 321 517
-62 776 128
+63 735 986
-63 632 641
+64 90 11
-64 769 605
+65 902 489
-65 852 177
+66 701 831
-66 118 413
+67 154 63
-67 667 626
+68 160 45
-68 85 632
+69 409 269
-69 649 559
+70 561 492
-70 317 890
+71 156 158
-71 142 436
+72 291 150
-72 167 102
+73 558 455
-73 43 275
+74 814 851
-74 748 951
+75 195 811
-75 722 671
+76 893 549
-76 814 357
+77 51 793
-77 293 757
+78 832 822
-78 738 468
PRECEDENCE_SECTION
+0 -0
+1 -1
+2 -2
+3 -3
+4 -4
+5 -5
+6 -6
+7 -7
+8 -8
+9 -9
+10 -10
+11 -11
+12 -12
+13 -13
+14 -14
+15 -15
+16 -16
+17 -17
+18 -18
+19 -19
+20 -20
+21 -21
+22 -22
+23 -23
+24 -24
+25 -25
+26 -26
+27 -27
+28 -28
+29 -29
+30 -30
+31 -31
+32 -32
+33 -33
+34 -34
+35 -35
+36 -36
+37 -37
+38 -38
+39 -39
+40 -40
+41 -41
+42 -42
+43 -43
+44 -44
+45 -45
+46 -46
+47 -47
+48 -48
+49 -49
+50 -50
+51 -51
+52 -52
+53 -53
+54 -54
+55 -55
+56 -56
+57 -57
+58 -58
+59 -59
+60 -60
+61 -61
+62 -62
+63 -63
+64 -64
+65 -65
+66 -66
+67 -67
+68 -68
+69 -69
+70 -70
+71 -71
+72 -72
+73 -73
+74 -74
+75 -75
+76 -76
+77 -77
+78 -78
EOF
